$rem
        JOBTYPE             opt
        exchange            B3LYP
        BASIS               6-31G**
        BASIS2              r64G
        DUAL_BASIS_ENERGY   true
        UNRESTRICTED        true
$end
